!ENERGY
!UHF NOSOSCF ForceConv

%geom
 Scan
    B 0 1 = 0.4, 2.0, 17
    A 0 1 2 = 30, 80, 62
    D 0 1   = 60, 80, 39
 end
end
* xyzfile 0 1 h2_base.xyz
